FILENAME:   /home/mcs001/s132664/testsets/IP/miplib2017/chromaticindex256-8.mps.gz
SETTINGS:   settings_final_nopeek_norelabel_extend_norestarts
TIMELIMIT:  7200
OUTPUTNAME: final_miplib_symretope_if_extended_generating_set_cpx_v802__settings_final_nopeek_norelabel_extend_norestarts__2__
BINNAME:    bin/sbcs.linux.x86_64.gnu.opt.cpx
BASENAME:   chromaticindex256-8.mps.gz
SEED:       2
@01 /home/mcs001/s132664/testsets/IP/miplib2017/chromaticindex256-8.mps.gz ===========
@02 chromaticindex256-8.mps.gz
@03 1686656662
SCIP version 8.0.2 [precision: 8 byte] [memory: block] [mode: optimized] [LP solver: CPLEX 20.1.0.0] [GitHash: 5f0473c]
Copyright (C) 2002-2022 Konrad-Zuse-Zentrum fuer Informationstechnik Berlin (ZIB)

Symretope propagation methods - (c) Jasper van Doornmalen, Christopher Hojny.
[GitHash: 2fd0484]

reading parameter file <../settings/settings_final_nopeek_norelabel_extend_norestarts.set> ...

Changed settings:
limits/time = 7200
limits/restarts = 0
misc/usesymmetry = 1
randomization/randomseedshift = 2
constraints/orbisack/sepafreq = -1
constraints/symresack/sepafreq = -1
propagating/symmetry/addsymresacks = TRUE
propagating/symmetry/detectsubgroups = FALSE
propagating/symmetry/relabelsymretopes = 0
propagating/symmetry/extendgenerators = TRUE
propagating/symmetry/ofsymcomptiming = 0
constraints/symretope/sepafreq = -1
constraints/symretope/peek = FALSE


solving problem ...

original problem has 18432 variables (18432 bin, 0 int, 0 impl, 0 cont) and 16895 constraints
presolving:
(round 1, exhaustive) 0 del vars, 0 del conss, 0 add conss, 0 chg bounds, 0 chg sides, 0 chg coeffs, 16895 upgd conss, 0 impls, 16895 clqs
   (0.8s) probing: 51/18432 (0.3%) - 0 fixings, 0 aggregations, 0 implications, 0 bound changes
   (0.8s) probing aborted: 50/50 successive totally useless probings
   (0.8s) symmetry computation started: requiring (bin +, int +, cont +), (fixed: bin -, int -, cont -)
   (1.1s) symmetry computation finished: 4 generators found (max: 1500, log10 of symmetry group size: 1.7)
presolving (2 rounds: 2 fast, 2 medium, 2 exhaustive):
 0 deleted vars, 0 deleted constraints, 9 added constraints, 0 tightened bounds, 0 added holes, 0 changed sides, 0 changed coefficients
 0 implications, 16895 cliques
presolved problem has 18432 variables (18432 bin, 0 int, 0 impl, 0 cont) and 16904 constraints
  16895 constraints of type <setppc>
      7 constraints of type <orbisack>
      2 constraints of type <symretope>
transformed objective value is always integral (scale: 1)
Presolving Time: 1.16

 time | node  | left  |LP iter|LP it/n|mem/heur|mdpt |vars |cons |rows |cuts |sepa|confs|strbr|  dualbound   | primalbound  |  gap   | compl. 
  8.2s|     1 |     0 | 15689 |     - |   177M |   0 |  18k|  16k|  16k|   0 |  0 |  16 |   0 | 3.000000e+00 |      --      |    Inf | unknown
r 8.7s|     1 |     0 | 15689 |     - |shifting|   0 |  18k|  16k|  16k|   0 |  0 |  17 |   0 | 3.000000e+00 | 4.000000e+00 |  33.33%| unknown
 12.0s|     1 |     0 | 16510 |     - |   190M |   0 |  18k|  16k|  16k|   7 |  1 |  17 |   0 | 3.000000e+00 | 4.000000e+00 |  33.33%| unknown
 14.9s|     1 |     0 | 16819 |     - |   196M |   0 |  18k|  16k|  16k|   9 |  2 |  18 |   0 | 3.000000e+00 | 4.000000e+00 |  33.33%| unknown
 18.3s|     1 |     0 | 17549 |     - |   200M |   0 |  18k|  16k|  16k|  11 |  3 |  19 |   0 | 3.000000e+00 | 4.000000e+00 |  33.33%| unknown
 21.5s|     1 |     0 | 18224 |     - |   206M |   0 |  18k|  16k|  16k|  14 |  4 |  20 |   0 | 3.000000e+00 | 4.000000e+00 |  33.33%| unknown
 25.0s|     1 |     0 | 18837 |     - |   211M |   0 |  18k|  16k|  16k|  18 |  5 |  21 |   0 | 3.000000e+00 | 4.000000e+00 |  33.33%| unknown
 28.3s|     1 |     0 | 19433 |     - |   214M |   0 |  18k|  16k|  16k|  20 |  6 |  22 |   0 | 3.000000e+00 | 4.000000e+00 |  33.33%| unknown
 31.5s|     1 |     0 | 19898 |     - |   222M |   0 |  18k|  16k|  16k|  21 |  7 |  23 |   0 | 3.000000e+00 | 4.000000e+00 |  33.33%| unknown
 34.7s|     1 |     0 | 20504 |     - |   224M |   0 |  18k|  16k|  16k|  27 |  8 |  24 |   0 | 3.000000e+00 | 4.000000e+00 |  33.33%| unknown
 38.1s|     1 |     0 | 21134 |     - |   227M |   0 |  18k|  16k|  16k|  30 |  9 |  25 |   0 | 3.000000e+00 | 4.000000e+00 |  33.33%| unknown
 41.3s|     1 |     0 | 21546 |     - |   230M |   0 |  18k|  16k|  16k|  32 | 10 |  26 |   0 | 3.000000e+00 | 4.000000e+00 |  33.33%| unknown
 44.7s|     1 |     0 | 22058 |     - |   231M |   0 |  18k|  16k|  16k|  34 | 11 |  27 |   0 | 3.000000e+00 | 4.000000e+00 |  33.33%| unknown
 67.6s|     1 |     2 | 29964 |     - |   232M |   0 |  18k|  16k|  16k|  34 | 11 |  32 |  19 | 3.000000e+00 | 4.000000e+00 |  33.33%| unknown
  110s|   100 |    93 | 59699 | 380.2 |   242M |  13 |  18k|  17k|  16k| 109 |  1 | 712 |  19 | 3.000000e+00 | 4.000000e+00 |  33.33%|  50.14%
 time | node  | left  |LP iter|LP it/n|mem/heur|mdpt |vars |cons |rows |cuts |sepa|confs|strbr|  dualbound   | primalbound  |  gap   | compl. 
  172s|   200 |    20 | 79138 | 286.8 |   251M |  15 |  18k|  14k|  16k| 342 |  0 |1290 |  19 | 3.000000e+00 | 4.000000e+00 |  33.33%|  59.27%

SCIP Status        : problem is solved [optimal solution found]
Solving Time (sec) : 177.23
Solving Nodes      : 264
Primal Bound       : +4.00000000000000e+00 (2 solutions)
Dual Bound         : +4.00000000000000e+00
Gap                : 0.00 %
SCIP Status        : problem is solved [optimal solution found]
Total Time         :     177.37
  solving          :     177.23
  presolving       :       1.16 (included in solving)
  reading          :       0.14
  copying          :       0.16 (2 #copies) (minimal 0.08, maximal 0.08, average 0.08)
Original Problem   :
  Problem name     : chromaticindex256-8
  Variables        : 18432 (18432 binary, 0 integer, 0 implicit integer, 0 continuous)
  Constraints      : 16895 initial, 16895 maximal
  Objective        : minimize, 4 non-zeros (abs.min = 1, abs.max = 1)
Presolved Problem  :
  Problem name     : t_chromaticindex256-8
  Variables        : 18432 (18432 binary, 0 integer, 0 implicit integer, 0 continuous)
  Constraints      : 16904 initial, 18033 maximal
  Objective        : minimize, 4 non-zeros (abs.min = 1, abs.max = 1)
  Nonzeros         : 150636 constraint, 41435 clique table
Presolvers         :   ExecTime  SetupTime  Calls  FixedVars   AggrVars   ChgTypes  ChgBounds   AddHoles    DelCons    AddCons   ChgSides   ChgCoefs
  boundshift       :       0.00       0.00      0          0          0          0          0          0          0          0          0          0
  convertinttobin  :       0.00       0.00      0          0          0          0          0          0          0          0          0          0
  domcol           :       0.03       0.00      1          0          0          0          0          0          0          0          0          0
  dualagg          :       0.00       0.00      0          0          0          0          0          0          0          0          0          0
  dualcomp         :       0.00       0.00      0          0          0          0          0          0          0          0          0          0
  dualinfer        :       0.00       0.00      0          0          0          0          0          0          0          0          0          0
  dualsparsify     :       0.04       0.00      1          0          0          0          0          0          0          0          0          0
  gateextraction   :       0.00       0.00      0          0          0          0          0          0          0          0          0          0
  implics          :       0.00       0.00      2          0          0          0          0          0          0          0          0          0
  inttobinary      :       0.00       0.00      0          0          0          0          0          0          0          0          0          0
  qpkktref         :       0.00       0.00      0          0          0          0          0          0          0          0          0          0
  redvub           :       0.00       0.00      0          0          0          0          0          0          0          0          0          0
  sparsify         :       0.04       0.00      1          0          0          0          0          0          0          0          0          0
  stuffing         :       0.00       0.00      0          0          0          0          0          0          0          0          0          0
  trivial          :       0.00       0.00      2          0          0          0          0          0          0          0          0          0
  tworowbnd        :       0.00       0.00      0          0          0          0          0          0          0          0          0          0
  dualfix          :       0.00       0.00      2          0          0          0          0          0          0          0          0          0
  genvbounds       :       0.00       0.00      0          0          0          0          0          0          0          0          0          0
  probing          :       0.33       0.00      1          0          0          0          0          0          0          0          0          0
  pseudoobj        :       0.00       0.00      0          0          0          0          0          0          0          0          0          0
  symmetry         :       0.39       0.00      1          0          0          0          0          0          0          9          0          0
  vbounds          :       0.02       0.00      1          0          0          0          0          0          0          0          0          0
  knapsack         :       0.00       0.00      0          0          0          0          0          0          0          0          0          0
  setppc           :       0.07       0.01      3          0          0          0          0          0          0          0          0          0
  linear           :       0.12       0.03      2          0          0          0          0          0          0          0          0          0
  orbisack         :       0.00       0.00      0          0          0          0          0          0          0          0          0          0
  symretope        :       0.00       0.00      0          0          0          0          0          0          0          0          0          0
  logicor          :       0.00       0.00      0          0          0          0          0          0          0          0          0          0
  benders          :       0.00       0.00      0          0          0          0          0          0          0          0          0          0
  components       :       0.04       0.00      1          0          0          0          0          0          0          0          0          0
  root node        :          -          -      -       4632          -          -       4632          -          -          -          -          -
Constraints        :     Number  MaxNumber  #Separate #Propagate    #EnfoLP    #EnfoRelax  #EnfoPS    #Check   #ResProp    Cutoffs    DomReds       Cuts    Applied      Conss   Children
  benderslp        :          0          0          0          0        206          0          0         10          0          0          0          0          0          0          0
  integral         :          0          0          0          0        206          0          0         10          0          0          0          0          0          0        412
  knapsack         :          0+         8          0      65355          0          0          0          0          8          7          0          0          0          0          0
  setppc           :      16895+     16902         11     125926          0          0          0          5      12000        429      20017          0          0          0          0
  linear           :          0+         7          0      71570          0          0          0          0         29          6          8          0          0          0          0
  orbisack         :          7          7          0         54          0          0          0          2         19          5          3          0          0          0          0
  symretope        :          2          2          0        203          0          0          0          2          4          3          0          0          0          0          0
  logicor          :          0+      1108         11       6667          0          0          0          0        702         33         82          0          0          0          0
  benders          :          0          0          0          0          0          0          0          3          0          0          0          0          0          0          0
  countsols        :          0          0          0          0          0          0          0          3          0          0          0          0          0          0          0
  components       :          0          0          0          0          0          0          0          0          0          0          0          0          0          0          0
Constraint Timings :  TotalTime  SetupTime   Separate  Propagate     EnfoLP     EnfoPS     EnfoRelax   Check    ResProp    SB-Prop
  benderslp        :       0.00       0.00       0.00       0.00       0.00       0.00       0.00       0.00       0.00       0.00
  integral         :      13.78       0.00       0.00       0.00      13.77       0.00       0.00       0.01       0.00       0.00
  knapsack         :       0.01       0.00       0.00       0.01       0.00       0.00       0.00       0.00       0.00       0.00
  setppc           :       1.07       0.01       0.04       0.98       0.00       0.00       0.00       0.01       0.01       0.03
  linear           :       0.03       0.03       0.00       0.01       0.00       0.00       0.00       0.00       0.00       0.00
  orbisack         :       0.02       0.00       0.00       0.02       0.00       0.00       0.00       0.00       0.00       0.00
  symretope        :       0.01       0.00       0.00       0.01       0.00       0.00       0.00       0.00       0.00       0.00
  logicor          :       0.05       0.00       0.00       0.04       0.00       0.00       0.00       0.00       0.00       0.00
  benders          :       0.00       0.00       0.00       0.00       0.00       0.00       0.00       0.00       0.00       0.00
  countsols        :       0.00       0.00       0.00       0.00       0.00       0.00       0.00       0.00       0.00       0.00
  components       :       0.01       0.00       0.00       0.01       0.00       0.00       0.00       0.00       0.00       0.00
Propagators        : #Propagate   #ResProp    Cutoffs    DomReds
  dualfix          :          1          0          0          0
  genvbounds       :          0          0          0          0
  nlobbt           :          0          0          0          0
  obbt             :          0          0          0          0
  probing          :          0          0          0          0
  pseudoobj        :       1014          3          0          2
  redcost          :         13          0          0          0
  rootredcost      :          0          0          0          0
  symmetry         :          0          0          0          0
  vbounds          :      51139          0          0          0
Propagator Timings :  TotalTime  SetupTime   Presolve  Propagate    ResProp    SB-Prop
  dualfix          :       0.00       0.00       0.00       0.00       0.00       0.00
  genvbounds       :       0.01       0.00       0.00       0.01       0.00       0.00
  nlobbt           :       0.00       0.00       0.00       0.00       0.00       0.00
  obbt             :       0.00       0.00       0.00       0.00       0.00       0.00
  probing          :       0.33       0.00       0.33       0.00       0.00       0.00
  pseudoobj        :       0.07       0.00       0.00       0.07       0.00       0.00
  redcost          :       0.03       0.00       0.00       0.03       0.00       0.00
  rootredcost      :       0.01       0.00       0.00       0.01       0.00       0.00
  symmetry         :       0.40       0.00       0.39       0.01       0.00       0.00
  vbounds          :       0.13       0.00       0.02       0.11       0.00       0.00
Orbital fixing     :
  vars fixed to 0  :          0
  vars fixed to 1  :          0
Conflict Analysis  :       Time      Calls    Success    DomReds  Conflicts   Literals    Reconvs ReconvLits   Dualrays   Nonzeros   LP Iters   (pool size: [10000,10000])
  propagation      :       0.02        471        466          -       1351       10.5        127       10.5          -          -          -
  infeasible LP    :       0.01          1          1          -         11       46.1          0        0.0          1       78.0          0
  bound exceed. LP :       0.08         15         15          -         53        7.6          5       12.0         15       11.9          0
  strong branching :       0.00          0          0          -          0        0.0          0        0.0          -          -          0
  pseudo solution  :       0.00          0          0          -          0        0.0          0        0.0          -          -          -
  applied globally :       0.01          -          -          0       1280        8.2          -          -         16          -          -
  applied locally  :          -          -          -          0          0        0.0          -          -          0          -          -
Separators         :   ExecTime  SetupTime      Calls  RootCalls    Cutoffs    DomReds  FoundCuts ViaPoolAdd  DirectAdd    Applied ViaPoolApp  DirectApp      Conss
  cut pool         :       0.12          -         67         21          -          -       3241       2397          -          -          -          -          -    (maximal pool size:       3241)
  aggregation      :       0.36       0.00         34         11          0          0          0          0          0          0          0          0          0
  > cmir           :          -          -          -          -          -          -          -          0          0          0          0          0          -
  > flowcover      :          -          -          -          -          -          -          -          0          0          0          0          0          -
  > knapsackcover  :          -          -          -          -          -          -          -          0          0          0          0          0          -
  cgmip            :       0.00       0.00          0          0          0          0          0          0          0          0          0          0          0
  clique           :      12.95       0.00         11         11          0          0          0          0          0          0          0          0          0
  closecuts        :       0.00       0.00          0          0          0          0          0          0          0          0          0          0          0
  convexproj       :       0.00       0.00          0          0          0          0          0          0          0          0          0          0          0
  disjunctive      :       0.00       0.00          0          0          0          0          0          0          0          0          0          0          0
  eccuts           :       0.00       0.00          0          0          0          0          0          0          0          0          0          0          0
  gauge            :       0.00       0.00          0          0          0          0          0          0          0          0          0          0          0
  gomory           :       1.10       0.00         33         10          0          0       3154       1961          0        128        128          0          0
  > gomorymi       :          -          -          -          -          -          -          -         41          0          2          2          0          -
  > strongcg       :          -          -          -          -          -          -          -       1920          0        126        126          0          -
  impliedbounds    :       0.07       0.00         34         11          0          0          1          1          0          1          1          0          0
  interminor       :       0.00       0.00          0          0          0          0          0          0          0          0          0          0          0
  intobj           :       0.00       0.00          0          0          0          0          0          0          0          0          0          0          0
  mcf              :       0.02       0.00          1          1          0          0          0          0          0          0          0          0          0
  minor            :       0.00       0.00          0          0          0          0          0          0          0          0          0          0          0
  mixing           :       0.00       0.00          0          0          0          0          0          0          0          0          0          0          0
  oddcycle         :       0.00       0.00          0          0          0          0          0          0          0          0          0          0          0
  rapidlearning    :       0.06       0.00          0          0          0          0          0          0          0          0          0          0          0
  rlt              :       0.00       0.00         10         10          0          0          0          0          0          0          0          0          0
  zerohalf         :      20.29       0.00         34         11          0          0         86        435          0        213        213          0          0
Cutselectors       :   ExecTime  SetupTime      Calls  RootCalls   Selected     Forced   Filtered  RootSelec   RootForc   RootFilt 
  hybrid           :       0.00       0.00         34         11        342          0       2055         34          0       1149
Pricers            :   ExecTime  SetupTime      Calls       Vars
  problem variables:       0.00          -          0          0
Branching Rules    :   ExecTime  SetupTime   BranchLP  BranchExt   BranchPS    Cutoffs    DomReds       Cuts      Conss   Children
  allfullstrong    :       0.00       0.00          0          0          0          0          0          0          0          0
  cloud            :       0.00       0.00          0          0          0          0          0          0          0          0
  distribution     :       0.00       0.00          0          0          0          0          0          0          0          0
  fullstrong       :       0.00       0.00          0          0          0          0          0          0          0          0
  inference        :       0.00       0.00          0          0          0          0          0          0          0          0
  leastinf         :       0.00       0.00          0          0          0          0          0          0          0          0
  lookahead        :       0.00       0.00          0          0          0          0          0          0          0          0
  mostinf          :       0.00       0.00          0          0          0          0          0          0          0          0
  multaggr         :       0.00       0.00          0          0          0          0          0          0          0          0
  nodereopt        :       0.00       0.00          0          0          0          0          0          0          0          0
  pscost           :       0.00       0.00          0          0          0          0          0          0          0          0
  random           :       0.00       0.00          0          0          0          0          0          0          0          0
  relpscost        :      13.77       0.00        206          0          0          0          0          0          0        412
  vanillafullstrong:       0.00       0.00          0          0          0          0          0          0          0          0
Primal Heuristics  :   ExecTime  SetupTime      Calls      Found       Best
  LP solutions     :       0.00          -          -          0          0
  relax solutions  :       0.00          -          -          0          0
  pseudo solutions :       0.00          -          -          0          0
  strong branching :       0.00          -          -          0          0
  actconsdiving    :       0.00       0.00          0          0          0
  adaptivediving   :      11.48       0.00         41          0          0
  alns             :       0.24       0.00          1          0          0
  bound            :       0.00       0.00          0          0          0
  clique           :       0.22       0.00          1          0          0
  coefdiving       :       0.00       0.00          0          0          0
  completesol      :       0.00       0.00          0          0          0
  conflictdiving   :       1.81       0.00         12          0          0
  crossover        :       0.00       0.00          0          0          0
  dins             :       0.00       0.00          0          0          0
  distributiondivin:       0.77       0.00         14          0          0
  dps              :       0.00       0.00          0          0          0
  dualval          :       0.00       0.00          0          0          0
  farkasdiving     :       0.00       0.00          0          0          0
  feaspump         :       9.08       0.00          1          1          0
  fixandinfer      :       0.00       0.00          0          0          0
  fracdiving       :       4.69       0.00         14          0          0
  gins             :       0.04       0.00          0          0          0
  guideddiving     :      13.97       0.00         30          0          0
  indicator        :       0.00       0.00          0          0          0
  intdiving        :       0.00       0.00          0          0          0
  intshifting      :       0.00       0.00          0          0          0
  linesearchdiving :       8.18       0.00         18          0          0
  localbranching   :       0.00       0.00          0          0          0
  locks            :       0.13       0.00          1          0          0
  lpface           :       0.00       0.00          0          0          0
  mpec             :       0.00       0.00          0          0          0
  multistart       :       0.00       0.00          0          0          0
  mutation         :       0.00       0.00          0          0          0
  nlpdiving        :       0.00       0.00          0          0          0
  objpscostdiving  :      30.92       0.00          4          0          0
  octane           :       0.00       0.00          0          0          0
  ofins            :       0.00       0.00          0          0          0
  oneopt           :       0.01       0.00          1          0          0
  padm             :       0.00       0.00          0          0          0
  proximity        :       0.00       0.00          0          0          0
  pscostdiving     :       2.02       0.00         14          0          0
  randrounding     :       0.45       0.00         12          0          0
  rens             :       0.00       0.00          0          0          0
  reoptsols        :       0.00       0.00          0          0          0
  repair           :       0.00       0.00          0          0          0
  rins             :       0.35       0.00          1          0          0
  rootsoldiving    :       1.59       0.00          1          0          0
  rounding         :       0.44       0.00        167          0          0
  shiftandpropagate:       0.12       0.00          1          0          0
  shifting         :       1.30       0.00         46          1          1
  simplerounding   :       0.00       0.00        240          0          0
  subnlp           :       0.00       0.00          0          0          0
  trivial          :       0.04       0.00          2          0          0
  trivialnegation  :       0.00       0.00          0          0          0
  trustregion      :       0.00       0.00          0          0          0
  trysol           :       0.00       0.00          0          0          0
  twoopt           :       0.00       0.00          0          0          0
  undercover       :       0.00       0.00          0          0          0
  vbounds          :       0.39       0.00          1          0          0
  veclendiving     :       1.26       0.00          9          0          0
  zeroobj          :       0.00       0.00          0          0          0
  zirounding       :       0.46       0.00        206          0          0
  other solutions  :          -          -          -          0          -
LP                 :       Time      Calls Iterations  Iter/call   Iter/sec  Time-0-It Calls-0-It    ItLimit
  primal LP        :       1.56         10          0       0.00       0.00       1.56         10
  dual LP          :      33.21        291      47239     162.33    1422.62       0.00          0
  lex dual LP      :       0.00          0          0       0.00          -
  barrier LP       :       0.00          0          0       0.00          -       0.00          0
  resolve instable :       0.00          0          0       0.00          -
  diving/probing LP:      42.33        453      33636      74.25     794.58
  strong branching :      12.36         19      17923     943.32    1449.65          -          -         29
    (at root node) :          -         19      17923     943.32          -
  conflict analysis:       0.00          0          0       0.00          -
B&B Tree           :
  number of runs   :          1
  nodes            :        264 (206 internal, 58 leaves)
  feasible leaves  :          0
  infeas. leaves   :          7
  objective leaves :         51
  nodes (total)    :        264 (206 internal, 58 leaves)
  nodes left       :          0
  max depth        :         15
  max depth (total):         15
  backtracks       :        117 (44.3%)
  early backtracks :          0 (0.0%)
  nodes exc. ref.  :          0 (0.0%)
  delayed cutoffs  :        148
  repropagations   :         61 (4677 domain reductions, 1 cutoffs)
  avg switch length:       3.86
  switching time   :       1.43
Root Node          :
  First LP value   : +3.00000000000000e+00
  First LP Iters   :      15689 (2601.67 Iter/sec)
  First LP Time    :       6.03
  Final Dual Bound : +3.00000000000000e+00
  Final Root Iters :      22058
  Root LP Estimate : +3.00536219355555e+00
Solution           :
  Solutions found  :          2 (1 improvements)
  First Solution   : +4.00000000000000e+00   (in run 1, after 1 nodes, 8.30 seconds, depth 0, found by <shifting>)
  Gap First Sol.   :      33.33 %
  Gap Last Sol.    :      33.33 %
  Primal Bound     : +4.00000000000000e+00   (in run 1, after 1 nodes, 8.30 seconds, depth 0, found by <shifting>)
  Dual Bound       : +4.00000000000000e+00
  Gap              :       0.00 %
Integrals          :      Total       Avg%
  primal-dual      :    5080.65      28.67
  primal-ref       :          -          - (not evaluated)
  dual-ref         :          -          - (not evaluated)
written solution information to file <results/final_miplib_symretope_if_extended_generating_set_cpx_v802__settings_final_nopeek_norelabel_extend_norestarts__2__chromaticindex256-8.mps.gz.sol>
@04 1686656840
